CUSTOMERS : 10
VEHICLES : 5
0 424 421 460 64 277 4 16 311 11 355 
189 0 127 241 71 417 146 172 277 445 189 
270 331 0 443 252 277 209 305 256 262 430 
158 239 255 0 269 324 299 8 304 187 346 
488 23 296 181 0 187 134 447 2 416 317 
396 455 470 165 250 0 239 461 248 261 447 
267 139 173 492 429 455 0 130 210 70 17 
69 389 23 77 435 260 228 0 45 428 176 
141 149 166 308 238 499 200 132 0 241 384 
454 351 149 340 74 15 385 158 15 0 156 
418 95 456 347 407 46 66 373 257 164 0 
